Route 1: 65 82 69 88 98 90 66 56 91 96 80
Route 2: 92 61 81 71 72 54 94 93
Route 3: 12 14 47 11 53 55 68 70 100
Route 4: 95 64 83 99 52 57 24 20 48
Route 5: 2 45 3 5 8 6 46 7 60
Route 6: 63 62 67 84 51 85 50
Route 7: 42 39 36 37 38 41 35 43
Route 8: 59 86 9 10 13 17
Route 9: 16 15 73 78 4 1
Route 10: 44 40 31 34
Route 11: 19 23 21 22 49 25
Route 12: 75 87 97 74 58
Route 13: 79
Route 14: 33 76 18 77
Route 15: 29 27 28 30 26 32 89
Vehicles: 15
Distance: 1985.11
